910 1
790 2
793 3
753 4
752 5
778 6
757 7
754 8
756 9
763 10
751 11
759 12
764 13
775 14
753 15
757 16
756 17
746 18
757 19
762 20
755 21
753 22
774 23
777 24
758 25
779 26
774 27
758 28
764 29
755 30
769 31
748 32

